% seed = 3233664

mint = 64;
% maxt = 225;

nActs = 42;
dur = [0,8,5,10,1,8,4,3,6,8,3,6,1,8,8,4,5,10,3,7,8,3,7,1,10,2,3,3,10,8,4,8,10,10,1,1,3,5,9,6,5,0];

nSkills = 4;
sreq = [| 0,0,0,0,
	| 2,5,4,2,
	| 3,3,1,0,
	| 5,4,5,5,
	| 2,6,5,0,
	| 0,4,7,0,
	| 7,5,0,0,
	| 0,0,5,5,
	| 2,3,2,4,
	| 2,4,0,3,
	| 4,4,0,2,
	| 4,0,6,2,
	| 2,5,2,0,
	| 3,4,2,3,
	| 1,4,2,3,
	| 0,0,6,7,
	| 7,0,4,5,
	| 5,0,3,4,
	| 2,4,1,6,
	| 3,7,0,5,
	| 5,0,0,6,
	| 0,4,6,4,
	| 2,1,2,2,
	| 2,1,2,4,
	| 6,2,0,0,
	| 4,0,3,7,
	| 4,0,6,3,
	| 6,5,5,0,
	| 0,5,0,3,
	| 7,1,0,6,
	| 0,5,4,5,
	| 0,0,7,6,
	| 4,3,2,2,
	| 0,7,6,3,
	| 5,3,5,3,
	| 3,1,2,5,
	| 3,3,4,3,
	| 0,0,6,7,
	| 0,7,4,0,
	| 0,6,0,4,
	| 0,3,5,3,
	| 0,0,0,0, |];

nResources = 45;
mastery = [| false,false,true,false,
	| false,false,false,true,
	| false,true,false,true,
	| false,false,true,false,
	| false,false,true,true,
	| true,true,true,false,
	| true,false,false,false,
	| false,false,false,true,
	| true,true,false,false,
	| true,true,true,false,
	| true,false,true,true,
	| true,false,true,true,
	| true,false,false,true,
	| false,true,true,true,
	| false,true,true,false,
	| false,false,false,true,
	| true,true,true,false,
	| false,true,false,false,
	| true,true,true,false,
	| false,false,false,true,
	| true,true,true,false,
	| true,false,true,false,
	| true,true,false,false,
	| true,true,true,false,
	| false,true,false,true,
	| false,true,false,true,
	| true,true,false,false,
	| true,true,true,false,
	| false,false,false,true,
	| false,true,false,false,
	| false,false,true,true,
	| false,false,true,false,
	| true,true,true,false,
	| false,false,true,true,
	| true,false,false,true,
	| true,true,false,true,
	| false,true,false,false,
	| true,false,false,true,
	| false,false,false,true,
	| false,true,false,false,
	| false,true,false,true,
	| false,false,true,true,
	| true,false,false,true,
	| true,true,false,false,
	| false,true,false,false, |];

nPrecs = 61;
pred = [1,1,1,2,2,2,3,3,4,4,4,5,6,7,7,7,8,8,8,9,9,9,10,11,11,12,13,13,14,14,15,16,17,18,19,19,20,21,21,22,23,23,23,24,25,26,27,28,29,30,31,32,33,34,35,36,37,38,39,40,41];
succ = [2,3,4,17,25,7,6,14,10,5,40,19,36,18,16,8,9,13,39,41,11,29,34,12,30,22,20,23,15,32,36,38,21,27,21,31,28,25,24,36,26,37,24,28,29,35,37,41,30,38,33,38,34,35,40,39,40,39,42,42,42];

nUnrels = 555;
unpred = [2,2,2,2,2,2,2,2,2,2,2,2,3,3,3,3,3,3,3,3,3,3,3,3,3,3,3,3,3,3,3,3,3,3,3,3,3,3,3,3,3,3,3,4,4,4,4,4,4,4,4,4,4,4,4,4,4,4,4,4,4,4,4,5,5,5,5,5,5,5,5,5,5,5,5,5,5,5,5,5,5,5,5,5,6,6,6,6,6,6,6,6,6,6,6,6,6,6,6,6,6,6,6,6,6,6,6,6,6,6,6,6,6,6,6,6,6,7,7,7,7,7,7,7,7,7,7,7,8,8,8,8,8,8,8,8,8,8,8,8,8,8,9,9,9,9,9,9,9,9,9,9,9,9,9,9,9,9,9,9,9,9,9,9,9,10,10,10,10,10,10,10,10,10,10,10,10,10,10,10,10,10,10,10,10,10,10,10,10,10,10,10,10,11,11,11,11,11,11,11,11,11,11,11,11,11,11,11,11,11,11,11,11,11,11,11,11,12,12,12,12,12,12,12,12,12,12,12,12,12,12,12,12,12,12,12,12,12,12,12,12,12,12,13,13,13,13,13,13,13,13,13,13,13,13,13,13,13,13,13,13,13,14,14,14,14,14,14,14,14,14,14,14,14,14,14,14,14,14,14,14,14,14,14,15,15,15,15,15,15,15,15,15,15,15,15,15,15,15,15,15,15,15,15,15,15,15,15,16,16,16,16,16,16,16,16,16,16,16,16,16,16,16,16,16,16,16,16,16,16,16,17,17,17,17,17,17,17,17,17,17,17,17,17,17,17,18,18,18,18,18,18,18,18,18,18,18,18,18,18,18,18,18,18,18,18,19,19,19,19,19,19,19,19,20,20,20,20,20,20,20,20,20,20,20,20,20,20,20,20,20,20,20,21,21,21,21,21,21,21,21,21,21,21,21,22,22,22,22,22,22,22,22,22,22,22,22,22,22,22,22,22,23,23,23,23,23,23,23,23,23,23,23,24,24,24,24,24,24,24,24,24,24,24,24,24,24,24,25,25,25,25,25,25,25,25,25,25,25,25,26,26,26,26,26,26,26,26,26,26,26,26,26,27,27,27,27,27,27,27,27,27,27,27,27,28,28,28,28,28,28,28,28,28,28,28,28,29,29,29,29,29,29,29,29,29,30,30,30,30,30,30,30,30,30,31,31,31,31,31,31,32,32,32,32,32,32,32,33,33,33,33,33,34,34,34,34,34,35,35,35,35,35,36,36,36,36,37,37,37,38,38,39,39,40];
unsucc = [3,4,5,6,10,14,15,19,31,32,33,34,4,5,7,8,9,10,11,12,13,16,17,18,19,20,21,22,23,24,25,26,27,28,29,30,31,33,34,35,37,40,41,6,7,8,9,11,12,13,14,15,16,17,18,20,22,23,26,27,32,36,37,6,7,8,9,10,11,12,13,14,15,16,17,18,20,22,23,26,27,32,36,37,7,8,9,10,11,12,13,14,15,16,17,18,19,20,21,22,23,24,25,26,27,28,29,30,31,32,33,34,35,37,38,40,41,10,14,15,17,19,21,25,31,32,33,34,10,14,15,16,17,18,19,21,25,27,31,32,33,34,10,13,14,15,16,17,18,19,20,21,23,24,25,26,27,28,31,32,33,34,35,37,40,11,12,13,14,15,16,17,18,19,20,21,22,23,24,25,26,27,28,29,30,31,32,33,36,37,38,39,41,13,14,15,16,17,18,19,20,21,23,24,25,26,27,28,29,31,32,33,34,35,37,40,41,13,14,15,16,17,18,19,20,21,23,24,25,26,27,28,29,30,31,32,33,34,35,37,38,40,41,14,15,16,17,18,19,21,22,25,27,29,30,31,32,33,34,36,38,39,16,17,18,19,20,21,22,23,24,25,26,27,28,29,30,31,33,34,35,37,40,41,16,17,18,19,20,21,22,23,24,25,26,27,28,29,30,31,32,33,34,35,37,38,40,41,17,18,19,20,21,22,23,24,25,26,27,28,29,30,31,32,33,34,35,36,37,40,41,18,19,20,22,23,26,27,31,32,33,34,35,36,37,40,19,20,21,22,23,24,25,26,28,29,30,31,32,33,34,35,36,38,39,41,20,22,23,26,27,32,36,37,21,22,23,24,25,26,27,29,30,31,32,33,34,35,36,37,38,39,40,22,23,26,27,31,32,33,34,35,36,37,40,23,24,25,26,27,28,29,30,31,32,33,34,35,37,38,40,41,25,27,29,30,31,32,33,34,36,38,39,25,26,27,29,30,31,32,33,34,35,36,37,38,39,40,26,27,28,31,32,33,34,35,36,37,40,41,27,28,29,30,31,32,33,34,36,37,38,39,41,28,29,30,31,32,33,34,35,36,38,39,41,29,30,31,32,33,34,35,36,37,38,39,40,31,32,33,34,35,36,37,40,41,31,32,33,34,35,36,37,40,41,32,36,37,38,39,41,33,34,35,36,37,40,41,36,37,38,39,41,36,37,38,39,41,36,37,38,39,41,37,38,40,41,38,39,41,40,41,40,41,41];

USEFUL_RES = [{},
	{1,2,3,4,5,6,7,8,9,10,11,12,13,14,15,16,17,18,19,20,21,22,23,24,25,26,27,28,29,30,31,32,33,34,35,36,37,38,39,40,41,42,43,44,45},
	{1,3,4,5,6,7,9,10,11,12,13,14,15,17,18,19,21,22,23,24,25,26,27,28,30,31,32,33,34,35,36,37,38,40,41,42,43,44,45},
	{1,2,3,4,5,6,7,8,9,10,11,12,13,14,15,16,17,18,19,20,21,22,23,24,25,26,27,28,29,30,31,32,33,34,35,36,37,38,39,40,41,42,43,44,45},
	{1,3,4,5,6,7,9,10,11,12,13,14,15,17,18,19,21,22,23,24,25,26,27,28,30,31,32,33,34,35,36,37,38,40,41,42,43,44,45},
	{1,3,4,5,6,9,10,11,12,14,15,17,18,19,21,22,23,24,25,26,27,28,30,31,32,33,34,36,37,40,41,42,44,45},
	{3,6,7,9,10,11,12,13,14,15,17,18,19,21,22,23,24,25,26,27,28,30,33,35,36,37,38,40,41,43,44,45},
	{1,2,3,4,5,6,8,10,11,12,13,14,15,16,17,19,20,21,22,24,25,26,28,29,31,32,33,34,35,36,38,39,41,42,43},
	{1,2,3,4,5,6,7,8,9,10,11,12,13,14,15,16,17,18,19,20,21,22,23,24,25,26,27,28,29,30,31,32,33,34,35,36,37,38,39,40,41,42,43,44,45},
	{2,3,5,6,7,8,9,10,11,12,13,14,15,16,17,18,19,20,21,22,23,24,25,26,27,28,29,30,31,33,34,35,36,37,38,39,40,41,42,43,44,45},
	{2,3,5,6,7,8,9,10,11,12,13,14,15,16,17,18,19,20,21,22,23,24,25,26,27,28,29,30,31,33,34,35,36,37,38,39,40,41,42,43,44,45},
	{1,2,3,4,5,6,7,8,9,10,11,12,13,14,15,16,17,19,20,21,22,23,24,25,26,27,28,29,31,32,33,34,35,36,38,39,41,42,43,44},
	{1,3,4,5,6,7,9,10,11,12,13,14,15,17,18,19,21,22,23,24,25,26,27,28,30,31,32,33,34,35,36,37,38,40,41,42,43,44,45},
	{1,2,3,4,5,6,7,8,9,10,11,12,13,14,15,16,17,18,19,20,21,22,23,24,25,26,27,28,29,30,31,32,33,34,35,36,37,38,39,40,41,42,43,44,45},
	{1,2,3,4,5,6,7,8,9,10,11,12,13,14,15,16,17,18,19,20,21,22,23,24,25,26,27,28,29,30,31,32,33,34,35,36,37,38,39,40,41,42,43,44,45},
	{1,2,3,4,5,6,8,10,11,12,13,14,15,16,17,19,20,21,22,24,25,26,28,29,31,32,33,34,35,36,38,39,41,42,43},
	{1,2,3,4,5,6,7,8,9,10,11,12,13,14,15,16,17,19,20,21,22,23,24,25,26,27,28,29,31,32,33,34,35,36,38,39,41,42,43,44},
	{1,2,3,4,5,6,7,8,9,10,11,12,13,14,15,16,17,19,20,21,22,23,24,25,26,27,28,29,31,32,33,34,35,36,38,39,41,42,43,44},
	{1,2,3,4,5,6,7,8,9,10,11,12,13,14,15,16,17,18,19,20,21,22,23,24,25,26,27,28,29,30,31,32,33,34,35,36,37,38,39,40,41,42,43,44,45},
	{2,3,5,6,7,8,9,10,11,12,13,14,15,16,17,18,19,20,21,22,23,24,25,26,27,28,29,30,31,33,34,35,36,37,38,39,40,41,42,43,44,45},
	{2,3,5,6,7,8,9,10,11,12,13,14,16,17,19,20,21,22,23,24,25,26,27,28,29,31,33,34,35,36,38,39,41,42,43,44},
	{1,2,3,4,5,6,8,9,10,11,12,13,14,15,16,17,18,19,20,21,22,23,24,25,26,27,28,29,30,31,32,33,34,35,36,37,38,39,40,41,42,43,44,45},
	{1,2,3,4,5,6,7,8,9,10,11,12,13,14,15,16,17,18,19,20,21,22,23,24,25,26,27,28,29,30,31,32,33,34,35,36,37,38,39,40,41,42,43,44,45},
	{1,2,3,4,5,6,7,8,9,10,11,12,13,14,15,16,17,18,19,20,21,22,23,24,25,26,27,28,29,30,31,32,33,34,35,36,37,38,39,40,41,42,43,44,45},
	{3,6,7,9,10,11,12,13,14,15,17,18,19,21,22,23,24,25,26,27,28,30,33,35,36,37,38,40,41,43,44,45},
	{1,2,3,4,5,6,7,8,9,10,11,12,13,14,15,16,17,19,20,21,22,23,24,25,26,27,28,29,31,32,33,34,35,36,38,39,41,42,43,44},
	{1,2,3,4,5,6,7,8,9,10,11,12,13,14,15,16,17,19,20,21,22,23,24,25,26,27,28,29,31,32,33,34,35,36,38,39,41,42,43,44},
	{1,3,4,5,6,7,9,10,11,12,13,14,15,17,18,19,21,22,23,24,25,26,27,28,30,31,32,33,34,35,36,37,38,40,41,42,43,44,45},
	{2,3,5,6,8,9,10,11,12,13,14,15,16,17,18,19,20,21,23,24,25,26,27,28,29,30,31,33,34,35,36,37,38,39,40,41,42,43,44,45},
	{2,3,5,6,7,8,9,10,11,12,13,14,15,16,17,18,19,20,21,22,23,24,25,26,27,28,29,30,31,33,34,35,36,37,38,39,40,41,42,43,44,45},
	{1,2,3,4,5,6,8,9,10,11,12,13,14,15,16,17,18,19,20,21,22,23,24,25,26,27,28,29,30,31,32,33,34,35,36,37,38,39,40,41,42,43,44,45},
	{1,2,3,4,5,6,8,10,11,12,13,14,15,16,17,19,20,21,22,24,25,26,28,29,31,32,33,34,35,36,38,39,41,42,43},
	{1,2,3,4,5,6,7,8,9,10,11,12,13,14,15,16,17,18,19,20,21,22,23,24,25,26,27,28,29,30,31,32,33,34,35,36,37,38,39,40,41,42,43,44,45},
	{1,2,3,4,5,6,8,9,10,11,12,13,14,15,16,17,18,19,20,21,22,23,24,25,26,27,28,29,30,31,32,33,34,35,36,37,38,39,40,41,42,43,44,45},
	{1,2,3,4,5,6,7,8,9,10,11,12,13,14,15,16,17,18,19,20,21,22,23,24,25,26,27,28,29,30,31,32,33,34,35,36,37,38,39,40,41,42,43,44,45},
	{1,2,3,4,5,6,7,8,9,10,11,12,13,14,15,16,17,18,19,20,21,22,23,24,25,26,27,28,29,30,31,32,33,34,35,36,37,38,39,40,41,42,43,44,45},
	{1,2,3,4,5,6,7,8,9,10,11,12,13,14,15,16,17,18,19,20,21,22,23,24,25,26,27,28,29,30,31,32,33,34,35,36,37,38,39,40,41,42,43,44,45},
	{1,2,3,4,5,6,8,10,11,12,13,14,15,16,17,19,20,21,22,24,25,26,28,29,31,32,33,34,35,36,38,39,41,42,43},
	{1,3,4,5,6,9,10,11,12,14,15,17,18,19,21,22,23,24,25,26,27,28,30,31,32,33,34,36,37,40,41,42,44,45},
	{2,3,5,6,8,9,10,11,12,13,14,15,16,17,18,19,20,21,23,24,25,26,27,28,29,30,31,33,34,35,36,37,38,39,40,41,42,43,44,45},
	{1,2,3,4,5,6,8,9,10,11,12,13,14,15,16,17,18,19,20,21,22,23,24,25,26,27,28,29,30,31,32,33,34,35,36,37,38,39,40,41,42,43,44,45},
	{}];

POTENTIAL_ACT = [{2,3,4,5,6,8,9,12,13,14,15,16,17,18,19,22,23,24,26,27,28,31,32,33,34,35,36,37,38,39,41},
	{2,4,8,9,10,11,12,14,15,16,17,18,19,20,21,22,23,24,26,27,29,30,31,32,33,34,35,36,37,38,40,41},
	{2,3,4,5,6,7,8,9,10,11,12,13,14,15,16,17,18,19,20,21,22,23,24,25,26,27,28,29,30,31,32,33,34,35,36,37,38,39,40,41},
	{2,3,4,5,6,8,9,12,13,14,15,16,17,18,19,22,23,24,26,27,28,31,32,33,34,35,36,37,38,39,41},
	{2,3,4,5,6,8,9,10,11,12,13,14,15,16,17,18,19,20,21,22,23,24,26,27,28,29,30,31,32,33,34,35,36,37,38,39,40,41},
	{2,3,4,5,6,7,8,9,10,11,12,13,14,15,16,17,18,19,20,21,22,23,24,25,26,27,28,29,30,31,32,33,34,35,36,37,38,39,40,41},
	{2,3,4,5,7,9,10,11,12,13,14,15,17,18,19,20,21,23,24,25,26,27,28,30,33,35,36,37},
	{2,4,8,9,10,11,12,14,15,16,17,18,19,20,21,22,23,24,26,27,29,30,31,32,33,34,35,36,37,38,40,41},
	{2,3,4,5,6,7,9,10,11,12,13,14,15,17,18,19,20,21,22,23,24,25,26,27,28,29,30,31,33,34,35,36,37,39,40,41},
	{2,3,4,5,6,7,8,9,10,11,12,13,14,15,16,17,18,19,20,21,22,23,24,25,26,27,28,29,30,31,32,33,34,35,36,37,38,39,40,41},
	{2,3,4,5,6,7,8,9,10,11,12,13,14,15,16,17,18,19,20,21,22,23,24,25,26,27,28,29,30,31,32,33,34,35,36,37,38,39,40,41},
	{2,3,4,5,6,7,8,9,10,11,12,13,14,15,16,17,18,19,20,21,22,23,24,25,26,27,28,29,30,31,32,33,34,35,36,37,38,39,40,41},
	{2,3,4,5,7,8,9,10,11,12,13,14,15,16,17,18,19,20,21,22,23,24,25,26,27,28,29,30,31,32,33,34,35,36,37,38,40,41},
	{2,3,4,5,6,7,8,9,10,11,12,13,14,15,16,17,18,19,20,21,22,23,24,25,26,27,28,29,30,31,32,33,34,35,36,37,38,39,40,41},
	{2,3,4,5,6,7,8,9,10,11,12,13,14,15,16,17,18,19,20,22,23,24,25,26,27,28,29,30,31,32,33,34,35,36,37,38,39,40,41},
	{2,4,8,9,10,11,12,14,15,16,17,18,19,20,21,22,23,24,26,27,29,30,31,32,33,34,35,36,37,38,40,41},
	{2,3,4,5,6,7,8,9,10,11,12,13,14,15,16,17,18,19,20,21,22,23,24,25,26,27,28,29,30,31,32,33,34,35,36,37,38,39,40,41},
	{2,3,4,5,6,7,9,10,11,13,14,15,19,20,22,23,24,25,28,29,30,31,33,34,35,36,37,39,40,41},
	{2,3,4,5,6,7,8,9,10,11,12,13,14,15,16,17,18,19,20,21,22,23,24,25,26,27,28,29,30,31,32,33,34,35,36,37,38,39,40,41},
	{2,4,8,9,10,11,12,14,15,16,17,18,19,20,21,22,23,24,26,27,29,30,31,32,33,34,35,36,37,38,40,41},
	{2,3,4,5,6,7,8,9,10,11,12,13,14,15,16,17,18,19,20,21,22,23,24,25,26,27,28,29,30,31,32,33,34,35,36,37,38,39,40,41},
	{2,3,4,5,6,7,8,9,10,11,12,13,14,15,16,17,18,19,20,21,22,23,24,25,26,27,28,30,31,32,33,34,35,36,37,38,39,41},
	{2,3,4,5,6,7,9,10,11,12,13,14,15,17,18,19,20,21,22,23,24,25,26,27,28,29,30,31,33,34,35,36,37,39,40,41},
	{2,3,4,5,6,7,8,9,10,11,12,13,14,15,16,17,18,19,20,21,22,23,24,25,26,27,28,29,30,31,32,33,34,35,36,37,38,39,40,41},
	{2,3,4,5,6,7,8,9,10,11,12,13,14,15,16,17,18,19,20,21,22,23,24,25,26,27,28,29,30,31,32,33,34,35,36,37,38,39,40,41},
	{2,3,4,5,6,7,8,9,10,11,12,13,14,15,16,17,18,19,20,21,22,23,24,25,26,27,28,29,30,31,32,33,34,35,36,37,38,39,40,41},
	{2,3,4,5,6,7,9,10,11,12,13,14,15,17,18,19,20,21,22,23,24,25,26,27,28,29,30,31,33,34,35,36,37,39,40,41},
	{2,3,4,5,6,7,8,9,10,11,12,13,14,15,16,17,18,19,20,21,22,23,24,25,26,27,28,29,30,31,32,33,34,35,36,37,38,39,40,41},
	{2,4,8,9,10,11,12,14,15,16,17,18,19,20,21,22,23,24,26,27,29,30,31,32,33,34,35,36,37,38,40,41},
	{2,3,4,5,6,7,9,10,11,13,14,15,19,20,22,23,24,25,28,29,30,31,33,34,35,36,37,39,40,41},
	{2,3,4,5,6,8,9,10,11,12,13,14,15,16,17,18,19,20,21,22,23,24,26,27,28,29,30,31,32,33,34,35,36,37,38,39,40,41},
	{2,3,4,5,6,8,9,12,13,14,15,16,17,18,19,22,23,24,26,27,28,31,32,33,34,35,36,37,38,39,41},
	{2,3,4,5,6,7,8,9,10,11,12,13,14,15,16,17,18,19,20,21,22,23,24,25,26,27,28,29,30,31,32,33,34,35,36,37,38,39,40,41},
	{2,3,4,5,6,8,9,10,11,12,13,14,15,16,17,18,19,20,21,22,23,24,26,27,28,29,30,31,32,33,34,35,36,37,38,39,40,41},
	{2,3,4,5,7,8,9,10,11,12,13,14,15,16,17,18,19,20,21,22,23,24,25,26,27,28,29,30,31,32,33,34,35,36,37,38,40,41},
	{2,3,4,5,6,7,8,9,10,11,12,13,14,15,16,17,18,19,20,21,22,23,24,25,26,27,28,29,30,31,32,33,34,35,36,37,38,39,40,41},
	{2,3,4,5,6,7,9,10,11,13,14,15,19,20,22,23,24,25,28,29,30,31,33,34,35,36,37,39,40,41},
	{2,3,4,5,7,8,9,10,11,12,13,14,15,16,17,18,19,20,21,22,23,24,25,26,27,28,29,30,31,32,33,34,35,36,37,38,40,41},
	{2,4,8,9,10,11,12,14,15,16,17,18,19,20,21,22,23,24,26,27,29,30,31,32,33,34,35,36,37,38,40,41},
	{2,3,4,5,6,7,9,10,11,13,14,15,19,20,22,23,24,25,28,29,30,31,33,34,35,36,37,39,40,41},
	{2,3,4,5,6,7,8,9,10,11,12,13,14,15,16,17,18,19,20,21,22,23,24,25,26,27,28,29,30,31,32,33,34,35,36,37,38,39,40,41},
	{2,3,4,5,6,8,9,10,11,12,13,14,15,16,17,18,19,20,21,22,23,24,26,27,28,29,30,31,32,33,34,35,36,37,38,39,40,41},
	{2,3,4,5,7,8,9,10,11,12,13,14,15,16,17,18,19,20,21,22,23,24,25,26,27,28,29,30,31,32,33,34,35,36,37,38,40,41},
	{2,3,4,5,6,7,9,10,11,12,13,14,15,17,18,19,20,21,22,23,24,25,26,27,28,29,30,31,33,34,35,36,37,39,40,41},
	{2,3,4,5,6,7,9,10,11,13,14,15,19,20,22,23,24,25,28,29,30,31,33,34,35,36,37,39,40,41}];
